921318
21, 20, 77, 41, 6, 69, 75, 18, 56, 10, 49, 55, 44, 42, 97, 35, 27, 2, 64, 5, 3, 85, 89, 8, 53, 91, 72, 36, 50, 88, 83, 15, 16, 82, 58, 61, 67, 46, 28, 11, 23, 98, 54, 65, 52, 73, 78, 25, 51, 79, 29, 40, 94, 26, 17, 12, 19, 59, 90, 34, 71, 24, 43, 22, 84, 92, 39, 14, 86, 45, 81, 4, 66, 7, 95, 57, 47, 33, 9, 1, 70, 13, 63, 68, 99, 80, 38, 76, 87, 48, 37, 74, 32, 60, 31, 93, 62, 30, 96
